c File: flat100_3_0.col
c
c SOURCE: Joseph Culberson (joe@cs.ualberta.ca)
c DESCRIPTION: Quasi-random coloring problem
c              generated with flatness = 0
c                             probability = 0.072
c                             known coloring = 3
c                             random seed = 1058
c              Creation Date:  Thu Jun  4 18:56:07 1998
c Maximum degree = 8 Minimum degree = 0
c p edge 100 239
c cnf created by edge2cnf
p cnf 300 1117
-1 -2 0
-1 -3 0
-2 -3 0
1 2 3 0
-4 -5 0
-4 -6 0
-5 -6 0
4 5 6 0
-7 -8 0
-7 -9 0
-8 -9 0
7 8 9 0
-10 -11 0
-10 -12 0
-11 -12 0
10 11 12 0
-13 -14 0
-13 -15 0
-14 -15 0
13 14 15 0
-16 -17 0
-16 -18 0
-17 -18 0
16 17 18 0
-19 -20 0
-19 -21 0
-20 -21 0
19 20 21 0
-22 -23 0
-22 -24 0
-23 -24 0
22 23 24 0
-25 -26 0
-25 -27 0
-26 -27 0
25 26 27 0
-28 -29 0
-28 -30 0
-29 -30 0
28 29 30 0
-31 -32 0
-31 -33 0
-32 -33 0
31 32 33 0
-34 -35 0
-34 -36 0
-35 -36 0
34 35 36 0
-37 -38 0
-37 -39 0
-38 -39 0
37 38 39 0
-40 -41 0
-40 -42 0
-41 -42 0
40 41 42 0
-43 -44 0
-43 -45 0
-44 -45 0
43 44 45 0
-46 -47 0
-46 -48 0
-47 -48 0
46 47 48 0
-49 -50 0
-49 -51 0
-50 -51 0
49 50 51 0
-52 -53 0
-52 -54 0
-53 -54 0
52 53 54 0
-55 -56 0
-55 -57 0
-56 -57 0
55 56 57 0
-58 -59 0
-58 -60 0
-59 -60 0
58 59 60 0
-61 -62 0
-61 -63 0
-62 -63 0
61 62 63 0
-64 -65 0
-64 -66 0
-65 -66 0
64 65 66 0
-67 -68 0
-67 -69 0
-68 -69 0
67 68 69 0
-70 -71 0
-70 -72 0
-71 -72 0
70 71 72 0
-73 -74 0
-73 -75 0
-74 -75 0
73 74 75 0
-76 -77 0
-76 -78 0
-77 -78 0
76 77 78 0
-79 -80 0
-79 -81 0
-80 -81 0
79 80 81 0
-82 -83 0
-82 -84 0
-83 -84 0
82 83 84 0
-85 -86 0
-85 -87 0
-86 -87 0
85 86 87 0
-88 -89 0
-88 -90 0
-89 -90 0
88 89 90 0
-91 -92 0
-91 -93 0
-92 -93 0
91 92 93 0
-94 -95 0
-94 -96 0
-95 -96 0
94 95 96 0
-97 -98 0
-97 -99 0
-98 -99 0
97 98 99 0
-100 -101 0
-100 -102 0
-101 -102 0
100 101 102 0
-103 -104 0
-103 -105 0
-104 -105 0
103 104 105 0
-106 -107 0
-106 -108 0
-107 -108 0
106 107 108 0
-109 -110 0
-109 -111 0
-110 -111 0
109 110 111 0
-112 -113 0
-112 -114 0
-113 -114 0
112 113 114 0
-115 -116 0
-115 -117 0
-116 -117 0
115 116 117 0
-118 -119 0
-118 -120 0
-119 -120 0
118 119 120 0
-121 -122 0
-121 -123 0
-122 -123 0
121 122 123 0
-124 -125 0
-124 -126 0
-125 -126 0
124 125 126 0
-127 -128 0
-127 -129 0
-128 -129 0
127 128 129 0
-130 -131 0
-130 -132 0
-131 -132 0
130 131 132 0
-133 -134 0
-133 -135 0
-134 -135 0
133 134 135 0
-136 -137 0
-136 -138 0
-137 -138 0
136 137 138 0
-139 -140 0
-139 -141 0
-140 -141 0
139 140 141 0
-142 -143 0
-142 -144 0
-143 -144 0
142 143 144 0
-145 -146 0
-145 -147 0
-146 -147 0
145 146 147 0
-148 -149 0
-148 -150 0
-149 -150 0
148 149 150 0
-151 -152 0
-151 -153 0
-152 -153 0
151 152 153 0
-154 -155 0
-154 -156 0
-155 -156 0
154 155 156 0
-157 -158 0
-157 -159 0
-158 -159 0
157 158 159 0
-160 -161 0
-160 -162 0
-161 -162 0
160 161 162 0
-163 -164 0
-163 -165 0
-164 -165 0
163 164 165 0
-166 -167 0
-166 -168 0
-167 -168 0
166 167 168 0
-169 -170 0
-169 -171 0
-170 -171 0
169 170 171 0
-172 -173 0
-172 -174 0
-173 -174 0
172 173 174 0
-175 -176 0
-175 -177 0
-176 -177 0
175 176 177 0
-178 -179 0
-178 -180 0
-179 -180 0
178 179 180 0
-181 -182 0
-181 -183 0
-182 -183 0
181 182 183 0
-184 -185 0
-184 -186 0
-185 -186 0
184 185 186 0
-187 -188 0
-187 -189 0
-188 -189 0
187 188 189 0
-190 -191 0
-190 -192 0
-191 -192 0
190 191 192 0
-193 -194 0
-193 -195 0
-194 -195 0
193 194 195 0
-196 -197 0
-196 -198 0
-197 -198 0
196 197 198 0
-199 -200 0
-199 -201 0
-200 -201 0
199 200 201 0
-202 -203 0
-202 -204 0
-203 -204 0
202 203 204 0
-205 -206 0
-205 -207 0
-206 -207 0
205 206 207 0
-208 -209 0
-208 -210 0
-209 -210 0
208 209 210 0
-211 -212 0
-211 -213 0
-212 -213 0
211 212 213 0
-214 -215 0
-214 -216 0
-215 -216 0
214 215 216 0
-217 -218 0
-217 -219 0
-218 -219 0
217 218 219 0
-220 -221 0
-220 -222 0
-221 -222 0
220 221 222 0
-223 -224 0
-223 -225 0
-224 -225 0
223 224 225 0
-226 -227 0
-226 -228 0
-227 -228 0
226 227 228 0
-229 -230 0
-229 -231 0
-230 -231 0
229 230 231 0
-232 -233 0
-232 -234 0
-233 -234 0
232 233 234 0
-235 -236 0
-235 -237 0
-236 -237 0
235 236 237 0
-238 -239 0
-238 -240 0
-239 -240 0
238 239 240 0
-241 -242 0
-241 -243 0
-242 -243 0
241 242 243 0
-244 -245 0
-244 -246 0
-245 -246 0
244 245 246 0
-247 -248 0
-247 -249 0
-248 -249 0
247 248 249 0
-250 -251 0
-250 -252 0
-251 -252 0
250 251 252 0
-253 -254 0
-253 -255 0
-254 -255 0
253 254 255 0
-256 -257 0
-256 -258 0
-257 -258 0
256 257 258 0
-259 -260 0
-259 -261 0
-260 -261 0
259 260 261 0
-262 -263 0
-262 -264 0
-263 -264 0
262 263 264 0
-265 -266 0
-265 -267 0
-266 -267 0
265 266 267 0
-268 -269 0
-268 -270 0
-269 -270 0
268 269 270 0
-271 -272 0
-271 -273 0
-272 -273 0
271 272 273 0
-274 -275 0
-274 -276 0
-275 -276 0
274 275 276 0
-277 -278 0
-277 -279 0
-278 -279 0
277 278 279 0
-280 -281 0
-280 -282 0
-281 -282 0
280 281 282 0
-283 -284 0
-283 -285 0
-284 -285 0
283 284 285 0
-286 -287 0
-286 -288 0
-287 -288 0
286 287 288 0
-289 -290 0
-289 -291 0
-290 -291 0
289 290 291 0
-292 -293 0
-292 -294 0
-293 -294 0
292 293 294 0
-295 -296 0
-295 -297 0
-296 -297 0
295 296 297 0
-298 -299 0
-298 -300 0
-299 -300 0
298 299 300 0
-208 -1 0
-209 -2 0
-210 -3 0
-247 -1 0
-248 -2 0
-249 -3 0
-250 -1 0
-251 -2 0
-252 -3 0
-202 -4 0
-203 -5 0
-204 -6 0
-226 -4 0
-227 -5 0
-228 -6 0
-259 -4 0
-260 -5 0
-261 -6 0
-295 -4 0
-296 -5 0
-297 -6 0
-121 -7 0
-122 -8 0
-123 -9 0
-154 -7 0
-155 -8 0
-156 -9 0
-220 -7 0
-221 -8 0
-222 -9 0
-238 -7 0
-239 -8 0
-240 -9 0
-256 -7 0
-257 -8 0
-258 -9 0
-295 -7 0
-296 -8 0
-297 -9 0
-139 -10 0
-140 -11 0
-141 -12 0
-157 -10 0
-158 -11 0
-159 -12 0
-223 -10 0
-224 -11 0
-225 -12 0
-229 -10 0
-230 -11 0
-231 -12 0
-283 -10 0
-284 -11 0
-285 -12 0
-124 -13 0
-125 -14 0
-126 -15 0
-166 -13 0
-167 -14 0
-168 -15 0
-232 -13 0
-233 -14 0
-234 -15 0
-247 -13 0
-248 -14 0
-249 -15 0
-262 -13 0
-263 -14 0
-264 -15 0
-274 -13 0
-275 -14 0
-276 -15 0
-124 -16 0
-125 -17 0
-126 -18 0
-163 -16 0
-164 -17 0
-165 -18 0
-259 -16 0
-260 -17 0
-261 -18 0
-274 -16 0
-275 -17 0
-276 -18 0
-169 -19 0
-170 -20 0
-171 -21 0
-187 -19 0
-188 -20 0
-189 -21 0
-193 -19 0
-194 -20 0
-195 -21 0
-244 -19 0
-245 -20 0
-246 -21 0
-172 -22 0
-173 -23 0
-174 -24 0
-193 -22 0
-194 -23 0
-195 -24 0
-259 -22 0
-260 -23 0
-261 -24 0
-148 -25 0
-149 -26 0
-150 -27 0
-166 -25 0
-167 -26 0
-168 -27 0
-169 -25 0
-170 -26 0
-171 -27 0
-187 -25 0
-188 -26 0
-189 -27 0
-274 -25 0
-275 -26 0
-276 -27 0
-229 -28 0
-230 -29 0
-231 -30 0
-226 -31 0
-227 -32 0
-228 -33 0
-106 -34 0
-107 -35 0
-108 -36 0
-133 -34 0
-134 -35 0
-135 -36 0
-184 -34 0
-185 -35 0
-186 -36 0
-196 -34 0
-197 -35 0
-198 -36 0
-214 -34 0
-215 -35 0
-216 -36 0
-226 -34 0
-227 -35 0
-228 -36 0
-244 -34 0
-245 -35 0
-246 -36 0
-253 -34 0
-254 -35 0
-255 -36 0
-130 -37 0
-131 -38 0
-132 -39 0
-247 -37 0
-248 -38 0
-249 -39 0
-277 -37 0
-278 -38 0
-279 -39 0
-280 -37 0
-281 -38 0
-282 -39 0
-289 -37 0
-290 -38 0
-291 -39 0
-151 -40 0
-152 -41 0
-153 -42 0
-214 -40 0
-215 -41 0
-216 -42 0
-220 -40 0
-221 -41 0
-222 -42 0
-253 -40 0
-254 -41 0
-255 -42 0
-286 -40 0
-287 -41 0
-288 -42 0
-106 -43 0
-107 -44 0
-108 -45 0
-157 -43 0
-158 -44 0
-159 -45 0
-172 -43 0
-173 -44 0
-174 -45 0
-178 -43 0
-179 -44 0
-180 -45 0
-232 -43 0
-233 -44 0
-234 -45 0
-256 -43 0
-257 -44 0
-258 -45 0
-292 -43 0
-293 -44 0
-294 -45 0
-124 -46 0
-125 -47 0
-126 -48 0
-127 -46 0
-128 -47 0
-129 -48 0
-160 -46 0
-161 -47 0
-162 -48 0
-175 -46 0
-176 -47 0
-177 -48 0
-205 -46 0
-206 -47 0
-207 -48 0
-241 -46 0
-242 -47 0
-243 -48 0
-250 -46 0
-251 -47 0
-252 -48 0
-139 -49 0
-140 -50 0
-141 -51 0
-163 -49 0
-164 -50 0
-165 -51 0
-277 -49 0
-278 -50 0
-279 -51 0
-292 -49 0
-293 -50 0
-294 -51 0
-115 -52 0
-116 -53 0
-117 -54 0
-133 -52 0
-134 -53 0
-135 -54 0
-166 -52 0
-167 -53 0
-168 -54 0
-232 -52 0
-233 -53 0
-234 -54 0
-283 -52 0
-284 -53 0
-285 -54 0
-121 -55 0
-122 -56 0
-123 -57 0
-127 -55 0
-128 -56 0
-129 -57 0
-163 -55 0
-164 -56 0
-165 -57 0
-196 -55 0
-197 -56 0
-198 -57 0
-229 -55 0
-230 -56 0
-231 -57 0
-256 -55 0
-257 -56 0
-258 -57 0
-277 -55 0
-278 -56 0
-279 -57 0
-283 -55 0
-284 -56 0
-285 -57 0
-109 -58 0
-110 -59 0
-111 -60 0
-133 -58 0
-134 -59 0
-135 -60 0
-166 -58 0
-167 -59 0
-168 -60 0
-175 -58 0
-176 -59 0
-177 -60 0
-121 -61 0
-122 -62 0
-123 -63 0
-154 -61 0
-155 -62 0
-156 -63 0
-157 -61 0
-158 -62 0
-159 -63 0
-196 -61 0
-197 -62 0
-198 -63 0
-205 -61 0
-206 -62 0
-207 -63 0
-232 -61 0
-233 -62 0
-234 -63 0
-238 -61 0
-239 -62 0
-240 -63 0
-106 -64 0
-107 -65 0
-108 -66 0
-178 -64 0
-179 -65 0
-180 -66 0
-196 -64 0
-197 -65 0
-198 -66 0
-208 -64 0
-209 -65 0
-210 -66 0
-289 -64 0
-290 -65 0
-291 -66 0
-241 -67 0
-242 -68 0
-243 -69 0
-259 -67 0
-260 -68 0
-261 -69 0
-118 -70 0
-119 -71 0
-120 -72 0
-145 -70 0
-146 -71 0
-147 -72 0
-181 -70 0
-182 -71 0
-183 -72 0
-199 -70 0
-200 -71 0
-201 -72 0
-265 -70 0
-266 -71 0
-267 -72 0
-268 -70 0
-269 -71 0
-270 -72 0
-145 -73 0
-146 -74 0
-147 -75 0
-172 -73 0
-173 -74 0
-174 -75 0
-181 -73 0
-182 -74 0
-183 -75 0
-250 -73 0
-251 -74 0
-252 -75 0
-256 -73 0
-257 -74 0
-258 -75 0
-265 -73 0
-266 -74 0
-267 -75 0
-130 -76 0
-131 -77 0
-132 -78 0
-157 -76 0
-158 -77 0
-159 -78 0
-223 -76 0
-224 -77 0
-225 -78 0
-277 -76 0
-278 -77 0
-279 -78 0
-295 -76 0
-296 -77 0
-297 -78 0
-154 -79 0
-155 -80 0
-156 -81 0
-187 -79 0
-188 -80 0
-189 -81 0
-193 -79 0
-194 -80 0
-195 -81 0
-289 -79 0
-290 -80 0
-291 -81 0
-121 -82 0
-122 -83 0
-123 -84 0
-130 -82 0
-131 -83 0
-132 -84 0
-175 -82 0
-176 -83 0
-177 -84 0
-229 -82 0
-230 -83 0
-231 -84 0
-250 -82 0
-251 -83 0
-252 -84 0
-283 -82 0
-284 -83 0
-285 -84 0
-178 -85 0
-179 -86 0
-180 -87 0
-130 -88 0
-131 -89 0
-132 -90 0
-142 -88 0
-143 -89 0
-144 -90 0
-151 -88 0
-152 -89 0
-153 -90 0
-106 -91 0
-107 -92 0
-108 -93 0
-193 -91 0
-194 -92 0
-195 -93 0
-214 -91 0
-215 -92 0
-216 -93 0
-292 -91 0
-293 -92 0
-294 -93 0
-151 -94 0
-152 -95 0
-153 -96 0
-163 -94 0
-164 -95 0
-165 -96 0
-223 -94 0
-224 -95 0
-225 -96 0
-280 -94 0
-281 -95 0
-282 -96 0
-295 -94 0
-296 -95 0
-297 -96 0
-181 -97 0
-182 -98 0
-183 -99 0
-190 -97 0
-191 -98 0
-192 -99 0
-214 -97 0
-215 -98 0
-216 -99 0
-271 -97 0
-272 -98 0
-273 -99 0
-286 -97 0
-287 -98 0
-288 -99 0
-289 -97 0
-290 -98 0
-291 -99 0
-139 -100 0
-140 -101 0
-141 -102 0
-151 -100 0
-152 -101 0
-153 -102 0
-169 -100 0
-170 -101 0
-171 -102 0
-172 -100 0
-173 -101 0
-174 -102 0
-202 -100 0
-203 -101 0
-204 -102 0
-226 -100 0
-227 -101 0
-228 -102 0
-241 -103 0
-242 -104 0
-243 -105 0
-283 -103 0
-284 -104 0
-285 -105 0
-232 -106 0
-233 -107 0
-234 -108 0
-244 -106 0
-245 -107 0
-246 -108 0
-277 -106 0
-278 -107 0
-279 -108 0
-208 -109 0
-209 -110 0
-210 -111 0
-235 -109 0
-236 -110 0
-237 -111 0
-250 -109 0
-251 -110 0
-252 -111 0
-217 -112 0
-218 -113 0
-219 -114 0
-202 -115 0
-203 -116 0
-204 -117 0
-259 -115 0
-260 -116 0
-261 -117 0
-229 -118 0
-230 -119 0
-231 -120 0
-271 -118 0
-272 -119 0
-273 -120 0
-283 -118 0
-284 -119 0
-285 -120 0
-295 -118 0
-296 -119 0
-297 -120 0
-238 -121 0
-239 -122 0
-240 -123 0
-274 -127 0
-275 -128 0
-276 -129 0
-277 -127 0
-278 -128 0
-279 -129 0
-283 -127 0
-284 -128 0
-285 -129 0
-208 -130 0
-209 -131 0
-210 -132 0
-283 -130 0
-284 -131 0
-285 -132 0
-202 -133 0
-203 -134 0
-204 -135 0
-214 -133 0
-215 -134 0
-216 -135 0
-247 -133 0
-248 -134 0
-249 -135 0
-256 -133 0
-257 -134 0
-258 -135 0
-289 -136 0
-290 -137 0
-291 -138 0
-226 -139 0
-227 -140 0
-228 -141 0
-289 -139 0
-290 -140 0
-291 -141 0
-208 -142 0
-209 -143 0
-210 -144 0
-274 -142 0
-275 -143 0
-276 -144 0
-277 -142 0
-278 -143 0
-279 -144 0
-223 -145 0
-224 -146 0
-225 -147 0
-250 -145 0
-251 -146 0
-252 -147 0
-268 -145 0
-269 -146 0
-270 -147 0
-247 -148 0
-248 -149 0
-249 -150 0
-280 -148 0
-281 -149 0
-282 -150 0
-292 -148 0
-293 -149 0
-294 -150 0
-295 -148 0
-296 -149 0
-297 -150 0
-250 -151 0
-251 -152 0
-252 -153 0
-259 -151 0
-260 -152 0
-261 -153 0
-229 -154 0
-230 -155 0
-231 -156 0
-265 -154 0
-266 -155 0
-267 -156 0
-232 -157 0
-233 -158 0
-234 -159 0
-235 -157 0
-236 -158 0
-237 -159 0
-241 -157 0
-242 -158 0
-243 -159 0
-235 -160 0
-236 -161 0
-237 -162 0
-202 -163 0
-203 -164 0
-204 -165 0
-205 -163 0
-206 -164 0
-207 -165 0
-253 -163 0
-254 -164 0
-255 -165 0
-262 -163 0
-263 -164 0
-264 -165 0
-226 -166 0
-227 -167 0
-228 -168 0
-247 -166 0
-248 -167 0
-249 -168 0
-235 -169 0
-236 -170 0
-237 -171 0
-265 -169 0
-266 -170 0
-267 -171 0
-295 -169 0
-296 -170 0
-297 -171 0
-289 -172 0
-290 -173 0
-291 -174 0
-244 -175 0
-245 -176 0
-246 -177 0
-208 -178 0
-209 -179 0
-210 -180 0
-214 -178 0
-215 -179 0
-216 -180 0
-268 -178 0
-269 -179 0
-270 -180 0
-274 -178 0
-275 -179 0
-276 -180 0
-241 -181 0
-242 -182 0
-243 -183 0
-268 -181 0
-269 -182 0
-270 -183 0
-241 -184 0
-242 -185 0
-243 -186 0
-292 -184 0
-293 -185 0
-294 -186 0
-244 -187 0
-245 -188 0
-246 -189 0
-262 -187 0
-263 -188 0
-264 -189 0
-286 -187 0
-287 -188 0
-288 -189 0
-289 -187 0
-290 -188 0
-291 -189 0
-217 -190 0
-218 -191 0
-219 -192 0
-220 -190 0
-221 -191 0
-222 -192 0
-247 -190 0
-248 -191 0
-249 -192 0
-280 -190 0
-281 -191 0
-282 -192 0
-256 -193 0
-257 -194 0
-258 -195 0
-286 -193 0
-287 -194 0
-288 -195 0
-232 -199 0
-233 -200 0
-234 -201 0
-268 -199 0
-269 -200 0
-270 -201 0
-298 -199 0
-299 -200 0
-300 -201 0
